NAME : d2103
TYPE : OP
DIMENSION : 2103
COST_LIMIT : 40225
ROUTE_NODES : 1004
ROUTE_SCORE : 57202
ROUTE_COST : 40225
NODE_SEQUENCE_SECTION
1
6
715
714
710
707
701
702
699
700
652
651
606
601
600
595
594
548
547
501
500
496
495
499
502
503
504
497
498
494
493
452
453
454
455
456
457
458
459
460
461
462
463
464
465
466
467
468
469
470
471
472
428
429
430
431
432
433
477
478
479
480
481
482
438
439
440
484
485
486
487
443
394
393
392
391
390
389
388
387
386
385
384
383
382
338
337
336
335
334
333
377
376
375
374
373
372
328
327
326
325
369
368
367
366
365
364
363
362
318
317
316
313
312
308
264
265
266
267
220
221
222
223
224
225
226
227
228
229
230
277
278
279
232
233
234
235
282
283
284
285
286
287
288
289
242
243
244
245
246
247
294
295
296
250
251
252
299
300
301
254
255
167
168
169
170
171
172
173
174
175
176
177
178
179
180
181
182
183
184
143
142
141
140
187
188
189
138
137
136
135
134
133
194
195
196
130
129
128
127
126
125
203
204
205
206
121
122
123
120
118
117
76
30
23
24
32
33
34
35
81
82
83
84
85
86
87
42
43
44
45
46
47
48
49
50
51
52
98
99
100
101
102
103
104
59
60
867
866
865
864
911
910
862
861
860
859
858
857
904
903
902
901
900
899
898
897
896
895
894
893
845
844
843
842
889
888
887
840
839
838
837
829
21
25
27
72
28
26
825
826
828
831
835
881
882
928
929
934
933
936
938
982
986
987
988
989
942
943
944
945
993
994
995
996
949
950
998
999
1000
1001
1002
1003
1004
1005
1006
959
960
961
962
963
964
965
1011
1067
1066
1065
1064
1063
1062
1061
1060
1059
1104
1103
1102
1101
1100
1099
1098
1097
1096
1095
1094
1093
1092
1091
1090
1089
1088
1043
1042
1087
1133
1137
1138
1142
1143
1145
1193
1194
1250
1249
1257
1258
1259
1260
1261
1262
1263
1264
1265
1312
1313
1238
1203
1204
1205
1206
1207
1208
1245
1269
1270
1271
1272
1273
1310
1274
1275
1276
1277
1278
1279
1280
1281
1282
1283
1284
1285
1286
1287
1288
1289
1290
1291
1292
1293
1294
1295
1296
1297
1298
1299
1300
1301
1302
1303
1304
1305
1306
1307
1308
1235
1187
1186
1185
1184
1183
1182
1230
1229
1228
1227
1226
1225
1177
1121
1122
1123
1124
1125
1126
1127
1128
1129
2037
2036
2035
2034
2033
2032
2031
2030
2029
2028
2027
2026
2025
1989
1988
1987
1986
1985
1984
1983
1982
1971
1972
1973
1974
1975
1976
1977
1918
1919
1920
1921
1922
1923
1924
1925
1926
1927
1928
1967
1966
1965
1964
1963
1962
1961
1960
1935
1936
1937
1938
1939
1940
1941
1942
1943
1944
1945
1950
1949
1947
1889
1888
1887
1886
1885
1884
1883
1882
1881
1894
1895
1896
1897
1898
1899
1900
1901
1902
1903
1904
1905
1906
1907
1908
1909
1910
1911
1912
1913
1862
1861
1860
1855
1854
1801
1802
1803
1804
1805
1806
1807
1808
1809
1810
1811
1812
1813
1843
1842
1841
1840
1839
1838
1837
1836
1835
1834
1833
1832
1831
1830
1829
1828
1827
1826
1825
1824
1823
1822
1821
1820
1819
1818
1779
1780
1781
1782
1783
1784
1785
1786
1787
1788
1789
1790
1791
1743
1744
1745
1746
1747
1748
1749
1750
1751
1752
1753
1754
1755
1756
1757
1758
1759
1760
1715
1716
1717
1718
1719
1720
1721
1722
1723
1724
1725
1726
1727
1728
1729
1730
1731
1732
1733
1734
1735
1681
1682
1683
1684
1685
1686
1687
1688
1689
1690
1691
1692
1693
1694
1695
1696
1697
1698
1699
1700
1701
1702
1703
1704
1705
1706
1650
1651
1652
1653
1654
1655
1656
1657
1658
1659
1660
1661
1662
1663
1664
1665
1666
1667
1668
1669
1670
1671
1672
1673
1674
1675
1676
1677
1618
1619
1620
1621
1622
1623
1611
1610
1609
1608
1607
1606
1605
1604
1603
1602
1601
1600
1599
1598
1597
1596
1579
1578
1577
1576
1575
1574
1573
1572
1571
1570
1569
1568
1567
1566
1565
1564
1563
1562
1561
1560
1615
1616
1559
1557
1498
1499
1500
1501
1502
1503
1504
1505
1506
1507
1508
1509
1510
1511
1545
1544
1543
1542
1541
1540
1539
1538
1537
1536
1535
1534
1533
1532
1531
1530
1529
1528
1527
1526
1525
1524
1523
1522
1521
1520
1476
1477
1478
1479
1480
1481
1482
1483
1484
1485
1486
1487
1488
1489
1490
1491
1492
1493
1494
1495
1496
1438
1439
1440
1441
1442
1443
1444
1445
1446
1447
1448
1449
1450
1451
1452
1453
1454
1455
1456
1457
1458
1459
1460
1461
1462
1463
1464
1465
1411
1403
1404
1350
1345
1344
1343
1352
1353
1354
1355
1356
1357
1358
1359
1360
1361
1362
1363
1364
1365
1366
1367
1328
1327
1326
1369
1370
1371
1372
1373
1374
1321
1320
1319
803
802
801
800
799
798
797
796
795
794
750
749
748
747
746
745
789
788
787
743
742
741
740
739
738
782
781
821
820
804
779
778
777
733
732
731
730
774
816
773
772
728
727
726
725
724
723
722
721
720
712
711
704
705
657
610
611
659
660
661
662
663
664
665
666
667
620
621
622
623
624
625
626
627
628
676
677
678
679
632
633
681
682
683
684
637
638
582
535
534
533
532
579
578
577
576
528
527
526
525
524
523
522
521
520
567
566
565
564
563
562
561
560
513
512
511
510
557
556
555
554
553
552
598
604
603
608
655
698
703
706
709
713
716
8
760
5
806
-1
DEPOT_SECTION
1
-1
EOF
